c p0=0.08
p cnf 10 43
-9 6 -4 0
8 -5 -2 0
6 -1 -9 0
3 10 -8 0
-7 6 4 0
-6 -8 2 0
6 2 9 0
4 1 6 0
9 -7 -5 0
-5 -1 6 0
3 5 2 0
-1 -2 -10 0
-7 -4 -9 0
-3 -10 -5 0
2 3 -5 0
6 -1 5 0
7 9 -5 0
-4 7 -8 0
8 7 2 0
-1 7 -8 0
1 -7 4 0
-2 6 -3 0
2 -6 -4 0
8 1 6 0
3 -7 1 0
9 -8 3 0
-1 -10 -2 0
7 8 -5 0
-7 -2 -4 0
4 -10 -3 0
-1 -7 -2 0
2 -8 6 0
3 -5 -2 0
8 -1 -5 0
3 -1 -6 0
2 6 -9 0
9 10 8 0
-1 4 7 0
-7 -6 -3 0
5 -1 -10 0
-4 2 8 0
-10 -1 -5 0
7 -3 -9 0
